25 500
  0     35.0     35.0       0.0     1000.0      0.0       0.0       0.0  
  1     41.0     49.0       0.0      974.0     10.0       8.0      10.0  
  2     35.0     17.0       0.0      972.0     10.0       8.0       7.0  
  3     55.0     45.0       0.0      967.0     10.0      25.0      13.0  
  4     55.0     20.0      620.0     860.0     10.0      34.0      19.0  
  5     15.0     30.0       0.0      969.0     10.0       5.0      26.0  
  6     25.0     30.0       0.0      978.0     10.0       6.0       3.0  
  7     20.0     50.0       0.0      968.0     10.0       6.0       5.0  
  8     10.0     43.0      323.0     563.0     10.0      16.0       9.0  
  9     55.0     60.0      329.0     569.0     10.0       5.0      16.0  
 10     30.0     60.0       0.0      964.0     10.0      14.0      16.0  
 11     20.0     65.0      146.0     386.0     10.0       4.0      12.0  
 12     50.0     35.0       0.0      975.0     10.0      32.0      19.0  
 13     30.0     25.0      639.0     879.0     10.0      38.0      23.0  
 14     15.0     10.0       0.0      957.0     10.0       6.0      20.0  
 15     30.0      5.0      118.0     358.0     10.0       7.0       8.0  
 16     10.0     20.0       0.0      960.0     10.0      21.0      19.0  
 17      5.0     30.0       0.0      959.0     10.0       1.0       2.0  
 18     20.0     40.0       0.0      974.0     10.0       5.0      12.0  
 19     15.0     60.0       0.0      957.0     10.0      27.0      17.0  
 20     45.0     65.0       0.0      958.0     10.0      10.0       9.0  
 21     45.0     20.0       0.0      971.0     10.0      19.0      11.0  
 22     45.0     10.0       0.0      963.0     10.0       4.0      18.0  
 23     55.0      5.0      146.0     386.0     10.0      55.0      29.0  
 24     65.0     35.0       0.0      960.0     10.0       5.0       3.0  
 25     65.0     20.0      716.0     956.0     10.0       2.0       6.0  
 26     45.0     30.0       0.0      978.0     10.0      19.0      17.0  
 27     35.0     40.0       0.0      985.0     10.0       7.0      16.0  
 28     41.0     37.0       0.0      983.0     10.0       6.0      16.0  
 29     64.0     42.0       0.0      960.0     10.0      15.0       9.0  
 30     40.0     60.0       0.0      964.0     10.0      42.0      21.0  
 31     31.0     52.0       0.0      972.0     10.0      51.0      27.0  
 32     35.0     69.0       0.0      956.0     10.0      43.0      23.0  
 33     53.0     52.0       0.0      965.0     10.0      19.0      11.0  
 34     65.0     55.0       0.0      953.0     10.0      12.0      14.0  
 35     63.0     65.0       0.0      948.0     10.0       8.0       8.0  
 36      2.0     60.0       0.0      948.0     10.0       8.0       5.0  
 37     20.0     20.0       0.0      968.0     10.0       7.0       8.0  
 38      5.0      5.0      234.0     474.0     10.0       8.0      16.0  
 39     60.0     12.0       0.0      956.0     10.0      45.0      31.0  
 40     40.0     25.0       0.0      978.0     10.0      12.0       9.0  
 41     42.0      7.0       0.0      961.0     10.0       7.0       5.0  
 42     24.0     12.0       0.0      964.0     10.0       8.0       5.0  
 43     23.0      3.0       0.0      955.0     10.0      13.0       7.0  
 44     11.0     14.0      167.0     407.0     10.0      18.0      18.0  
 45      6.0     38.0       0.0      960.0     10.0      15.0      16.0  
 46      2.0     48.0       0.0      954.0     10.0       1.0       1.0  
 47      8.0     56.0       0.0      955.0     10.0      29.0      27.0  
 48     13.0     52.0       0.0      962.0     10.0       9.0      36.0  
 49      6.0     68.0       0.0      946.0     10.0      17.0      30.0  
 50     47.0     47.0       0.0      973.0     10.0      19.0      13.0  
 51     49.0     58.0       0.0      963.0     10.0      10.0      10.0  
 52     27.0     43.0       0.0      978.0     10.0      12.0       9.0  
 53     37.0     31.0      332.0     572.0     10.0       5.0      14.0  
 54     57.0     29.0       0.0      967.0     10.0       8.0      18.0  
 55     63.0     23.0      560.0     800.0     10.0       0.0       2.0  
 56     53.0     12.0       0.0      960.0     10.0       5.0       6.0  
 57     32.0     12.0       0.0      966.0     10.0      12.0       7.0  
 58     36.0     26.0      740.0     980.0     10.0      18.0      18.0  
 59     21.0     24.0       0.0      972.0     10.0       2.0      28.0  
 60     17.0     34.0       0.0      971.0     10.0       6.0       3.0  
 61     12.0     24.0       0.0      964.0     10.0      20.0      13.0  
 62     24.0     58.0      113.0     353.0     10.0      33.0      19.0  
 63     27.0     69.0       0.0      955.0     10.0       7.0      10.0  
 64     15.0     77.0       0.0      943.0     10.0      17.0       9.0  
 65     62.0     77.0       0.0      940.0     10.0      20.0      20.0  
 66     49.0     73.0       0.0      949.0     10.0      31.0      25.0  
 67     67.0      5.0      228.0     468.0     10.0      32.0      25.0  
 68     56.0     39.0       0.0      968.0     10.0       9.0      36.0  
 69     37.0     47.0      108.0     348.0     10.0       4.0       6.0  
 70     37.0     56.0       0.0      968.0     10.0       6.0       5.0  
 71     57.0     68.0       0.0      950.0     10.0      24.0      15.0  
 72     47.0     16.0       0.0      967.0     10.0      40.0      25.0  
 73     44.0     17.0       0.0      969.0     10.0       9.0       9.0  
 74     46.0     13.0      622.0     862.0     10.0       5.0       8.0  
 75     49.0     11.0       0.0      962.0     10.0      18.0      18.0  
 76     49.0     42.0      212.0     452.0     10.0      16.0      13.0  
 77     53.0     43.0      730.0     970.0     10.0       9.0      14.0  
 78     61.0     52.0       0.0      958.0     10.0       5.0       3.0  
 79     57.0     48.0      307.0     547.0     10.0      43.0      23.0  
 80     56.0     37.0       0.0      968.0     10.0       2.0       6.0  
 81     55.0     54.0       0.0      962.0     10.0      22.0      26.0  
 82     15.0     47.0       0.0      966.0     10.0       3.0      16.0  
 83     14.0     37.0       0.0      968.0     10.0      13.0      11.0  
 84     11.0     31.0      354.0     594.0     10.0      11.0       7.0  
 85     16.0     22.0       0.0      966.0     10.0      73.0      41.0  
 86      4.0     18.0       0.0      954.0     10.0      50.0      35.0  
 87     28.0     18.0      314.0     554.0     10.0       2.0      26.0  
 88     26.0     52.0       0.0      970.0     10.0      17.0       9.0  
 89     26.0     35.0       0.0      981.0     10.0      29.0      15.0  
 90     31.0     67.0       0.0      957.0     10.0       5.0       3.0  
 91     15.0     19.0       0.0      964.0     10.0       2.0       1.0  
 92     22.0     22.0      18.0      258.0     10.0       1.0       2.0  
 93     18.0     24.0       0.0      969.0     10.0      12.0      22.0  
 94     26.0     27.0       0.0      977.0     10.0      43.0      27.0  
 95     25.0     24.0       0.0      975.0     10.0      14.0      20.0  
 96     22.0     27.0       0.0      974.0     10.0      18.0      11.0  
 97     25.0     21.0       0.0      972.0     10.0       4.0      12.0  
 98     19.0     21.0       0.0      968.0     10.0       3.0      10.0  
 99     20.0     26.0      263.0     503.0     10.0      12.0       9.0  
 100    18.0     18.0      725.0     965.0     10.0      32.0      17.0  
